Set parameter Username
Academic license - for non-commercial use only - expires 2024-10-29
Set parameter LazyConstraints to value 1
Set parameter TimeLimit to value 600
Gurobi Optimizer version 10.0.0 build v10.0.0rc2 (linux64)

CPU model: AMD FX(tm)-4300 Quad-Core Processor, instruction set [SSE2|AVX]
Thread count: 2 physical cores, 4 logical processors, using up to 4 threads

Optimize a model with 265 rows, 63 columns and 287 nonzeros
Model fingerprint: 0xd78a3121
Variable types: 0 continuous, 63 integer (63 binary)
Coefficient statistics:
  Matrix range     [1e+00, 1e+00]
  Objective range  [1e+00, 1e+01]
  Bounds range     [1e+00, 1e+00]
  RHS range        [1e+00, 1e+00]
Presolve removed 258 rows and 4 columns
Presolve time: 0.00s
Presolved: 7 rows, 59 columns, 23 nonzeros
Variable types: 0 continuous, 59 integer (59 binary)

Root relaxation: objective 3.000000e+01, 7 iterations, 0.00 seconds (0.00 work units)

    Nodes    |    Current Node    |     Objective Bounds      |     Work
 Expl Unexpl |  Obj  Depth IntInf | Incumbent    BestBd   Gap | It/Node Time

     0     0   30.00000    0    -          -   30.00000      -     -    0s
     0     0   32.00000    0    -          -   32.00000      -     -    0s
     0     0   34.00000    0    -          -   34.00000      -     -    0s
     0     0   37.00000    0    -          -   37.00000      -     -    0s
     0     0   37.00000    0    -          -   37.00000      -     -    0s
     0     0   37.00000    0    -          -   37.00000      -     -    0s
     0     0   38.00000    0    -          -   38.00000      -     -    0s
     0     0   39.00000    0    -          -   39.00000      -     -    0s
     0     0   42.00000    0    -          -   42.00000      -     -    0s
     0     0   42.00000    0    -          -   42.00000      -     -    0s
     0     0   42.00000    0    5          -   42.00000      -     -    0s
     0     0   56.00000    0    -          -   56.00000      -     -    0s
     0     0   57.00000    0    -          -   57.00000      -     -    0s
H    0     0                     123.0000000   57.00000  53.7%     -    0s
     0     0   57.00000    0    4  123.00000   57.00000  53.7%     -    0s
     0     0   67.00000    0    -  123.00000   67.00000  45.5%     -    0s
     0     0   67.00000    0    -  123.00000   67.00000  45.5%     -    0s
     0     0   67.00000    0    5  123.00000   67.00000  45.5%     -    0s
     0     0   68.00000    0    -  123.00000   68.00000  44.7%     -    0s
     0     0   68.00000    0    -  123.00000   68.00000  44.7%     -    0s
H    0     0                      96.0000000   68.00000  29.2%     -    0s
     0     0   68.00000    0    7   96.00000   68.00000  29.2%     -    0s
     0     2   70.00000    0    5   96.00000   70.00000  27.1%     -    0s
H    1     4                      95.0000000   70.00000  26.3%   0.0    0s
H    3     4                      88.0000000   70.50000  19.9%   8.7    0s
H    5     5                      87.0000000   70.50000  19.0%   8.4    0s
H   85    51                      83.0000000   73.00000  12.0%   9.6    1s

Cutting planes:
  User: 96
  Gomory: 3
  MIR: 2
  Lazy constraints: 69

Explored 160 nodes (1550 simplex iterations) in 1.93 seconds (0.04 work units)
Thread count was 4 (of 4 available processors)

Solution count 6: 83 87 88 ... 123

Optimal solution found (tolerance 1.00e-04)
Best objective 8.300000000000e+01, best bound 8.300000000000e+01, gap 0.0000%

User-callback calls 654, time in user-callback 1.83 sec
